#######################



#######################
Set parameter TimeLimit to value 500
Set parameter SoftMemLimit to value 125
Set parameter MIPFocus to value 2
Set parameter LogFile to value 1202-MIPFocus2-Presolve1-TimeLimit500-k16x240-4.log
Set parameter Presolve to value 1
Set parameter Seed to value 14
Using license file /opt/gurobi/gurobi.lic

Gurobi Optimizer version 12.0.2 build v12.0.2rc0 (linux64 - "Ubuntu 22.04.4 LTS")
Copyright (c) 2025, Gurobi Optimization, LLC

Read MPS format model from file /miplib2010/k16x240.mps.bz2
Reading time = 0.00 seconds
k16x240: 256 rows, 480 columns, 960 nonzeros

Using Gurobi shared library /nfs/shared/static-builds/gurobi1202

CPU model: Intel(R) Xeon(R) E-2388G CPU @ 3.20GHz, instruction set [SSE2|AVX|AVX2|AVX512]
Thread count: 8 physical cores, 16 logical processors, using up to 16 threads

Non-default parameters:
TimeLimit  500
SoftMemLimit  125
MIPFocus  2
Presolve  1
Seed  14

Optimize a model with 256 rows, 480 columns and 960 nonzeros
Model fingerprint: 0x4e80885f
Variable types: 240 continuous, 240 integer (240 binary)
Coefficient statistics:
  Matrix range     [1e+00, 1e+03]
  Objective range  [1e+00, 1e+03]
  Bounds range     [1e+00, 1e+03]
  RHS range        [4e+00, 4e+02]
Found heuristic solution: objective 19431.000000
Presolve time: 0.00s
Presolved: 256 rows, 480 columns, 960 nonzeros
Variable types: 240 continuous, 240 integer (240 binary)

Root relaxation: objective 2.769838e+03, 51 iterations, 0.00 seconds (0.00 work units)

    Nodes    |    Current Node    |     Objective Bounds      |     Work
 Expl Unexpl |  Obj  Depth IntInf | Incumbent    BestBd   Gap | It/Node Time

     0     0 2769.83800    0   14 19431.0000 2769.83800  85.7%     -    0s
H    0     0                    11359.000000 2769.83800  75.6%     -    0s
H    0     0                    11342.000000 2769.83800  75.6%     -    0s
H    0     0                    11195.000000 2769.83800  75.3%     -    0s
H    0     0                    11088.000000 2769.83800  75.0%     -    0s
H    0     0                    11074.000000 2769.83800  75.0%     -    0s
     0     0 8116.87580    0   26 11074.0000 8116.87580  26.7%     -    0s
H    0     0                    10916.000000 8161.01413  25.2%     -    0s
     0     0 8588.30479    0   25 10916.0000 8588.30479  21.3%     -    0s
H    0     0                    10806.000000 8613.92228  20.3%     -    0s
     0     0 8613.92228    0   22 10806.0000 8613.92228  20.3%     -    0s
     0     0 8720.59081    0   23 10806.0000 8720.59081  19.3%     -    0s
H    0     0                    10784.000000 8724.13618  19.1%     -    0s
H    0     0                    10750.000000 8724.13618  18.8%     -    0s
H    0     0                    10748.000000 8724.13618  18.8%     -    0s
     0     0 8841.67029    0   27 10748.0000 8841.67029  17.7%     -    0s
     0     0 8854.70970    0   41 10748.0000 8854.70970  17.6%     -    0s
     0     0 8856.63912    0   42 10748.0000 8856.63912  17.6%     -    0s
     0     0 9012.76735    0   42 10748.0000 9012.76735  16.1%     -    0s
     0     0 9033.29811    0   43 10748.0000 9033.29811  16.0%     -    0s
     0     0 9065.56157    0   32 10748.0000 9065.56157  15.7%     -    0s
     0     0 9076.92113    0   38 10748.0000 9076.92113  15.5%     -    0s
     0     0 9089.03123    0   28 10748.0000 9089.03123  15.4%     -    0s
     0     0 9101.53712    0   31 10748.0000 9101.53712  15.3%     -    0s
     0     0 9109.99304    0   34 10748.0000 9109.99304  15.2%     -    0s
     0     0 9110.21441    0   34 10748.0000 9110.21441  15.2%     -    0s
     0     2 9110.38111    0   34 10748.0000 9110.38111  15.2%     -    0s
H  181   205                    10746.000000 9202.11704  14.4%  32.2    0s
H 1945  1352                    10674.000000 9475.84900  11.2%  17.8    0s
 38241 13483 10403.1134   32   10 10674.0000 10049.6062  5.85%  26.7    5s
 83105 19615     cutoff   34      10674.0000 10215.5207  4.30%  27.9   10s
 134863 15854     cutoff   43      10674.0000 10379.0728  2.76%  27.6   15s

Cutting planes:
  Gomory: 2
  Lift-and-project: 10
  Cover: 102
  Implied bound: 38
  Dual implied bound: 19
  MIR: 175
  Mixing: 2
  Flow cover: 270
  Flow path: 35
  Inf proof: 3
  Zero half: 7
  Network: 45
  Relax-and-lift: 3

Explored 170391 nodes (4434556 simplex iterations) in 17.82 seconds (24.50 work units)
Thread count was 16 (of 16 available processors)

Solution count 10: 10674 10746 10748 ... 11195

Optimal solution found (tolerance 1.00e-04)
Best objective 1.067400000000e+04, best bound 1.067400000000e+04, gap 0.0000%
